p edge 50 119
e 1 6
e 1 21
e 1 29
e 1 36
e 1 47
e 2 9
e 2 29
e 3 28
e 3 32
e 4 13
e 4 37
e 4 42
e 4 48
e 5 10
e 5 20
e 5 23
e 5 48
e 6 13
e 6 15
e 6 32
e 7 20
e 7 21
e 7 27
e 7 47
e 8 14
e 8 25
e 8 44
e 9 23
e 9 47
e 10 19
e 10 45
e 10 48
e 11 18
e 11 20
e 11 29
e 11 30
e 11 34
e 11 35
e 11 39
e 11 42
e 11 44
e 11 49
e 12 17
e 12 23
e 12 46
e 13 26
e 13 28
e 13 34
e 13 44
e 13 50
e 14 32
e 14 35
e 14 36
e 14 40
e 14 44
e 15 22
e 15 43
e 16 42
e 16 48
e 16 50
e 17 21
e 18 37
e 18 47
e 19 43
e 19 50
e 20 25
e 20 29
e 20 35
e 20 42
e 20 49
e 21 23
e 21 24
e 21 27
e 21 37
e 22 28
e 22 29
e 22 31
e 22 32
e 22 36
e 22 46
e 23 29
e 23 36
e 23 40
e 24 32
e 24 42
e 25 28
e 25 43
e 26 31
e 26 33
e 26 35
e 26 37
e 26 42
e 26 43
e 27 32
e 27 33
e 27 42
e 27 49
e 28 39
e 28 45
e 29 32
e 29 46
e 30 44
e 30 48
e 32 41
e 32 46
e 32 49
e 33 42
e 33 47
e 34 48
e 35 49
e 36 39
e 36 45
e 36 48
e 37 45
e 37 47
e 40 44
e 43 46
e 44 47
e 46 47
